benchmark_str_length/p2_10_7-4.txt
{
	"num_strings": 10,
	"alphabet": "ACGT",
	"strings": [
		"C",
		"CTTTACC",
		"AGCC",
		"AAAT",
		"CTAGATG",
		"TG",
		"GCATA",
		"TTT",
		"CATGGCA",
		"AGA"
	],
	"str_length":[1,7,4,4,7,2,5,3,7,3]
}